(set-logic HORN)
(set-info :source |
    Benchmark: C_VC
    Output by Princess (http://www.philipp.ruemmer.org/princess.shtml)
|)
(set-info :status unsat)
(declare-heap Heap Addr HeapObject
 defObj
 ((HeapObject 0)) (
  (
   (O_Int (getInt Int))
   (O_UInt (getUInt Int))
   (O_Addr (getAddr Addr))
   (defObj)
  )
))
(declare-fun inv_main11 (Heap Int AddrRange Int Int) Bool)
(declare-fun inv_main16 (Heap Int AddrRange Int Int) Bool)
(declare-fun inv_main17 (Heap Int AddrRange Int Int) Bool)
(declare-fun inv_main25 (Heap Int AddrRange Int Int AddrRange Int) Bool)
(declare-fun inv_main28 (Heap Int AddrRange Int Int AddrRange Int) Bool)
(declare-fun inv_main30 (Heap Int AddrRange Int Int AddrRange Int) Bool)
(declare-fun inv_main33 (Heap Int AddrRange Int Int AddrRange Int Int) Bool)
(declare-fun inv_main38 (Heap Int AddrRange Int Int AddrRange Int AddrRange Int Int Int) Bool)
(declare-fun inv_main43 (Heap Int AddrRange Int Int AddrRange Int AddrRange Int Int) Bool)
(declare-fun inv_main48 (Heap Int AddrRange Int Int AddrRange Int) Bool)
(declare-fun inv_main52 (Heap Int AddrRange Int Int AddrRange Int) Bool)
(declare-fun inv_main6 (Heap Int AddrRange Int Int) Bool)
(assert (forall ((var0 Int) (var1 Int) (var2 AddrRange) (var3 Int) (var4 Int) (var5 Heap) (var6 Heap)) (or (not (and (= var6 emptyHeap) (and (and (= var5 (newBatchHeap (batchAlloc emptyHeap (O_Int var4) 100000))) (= var3 0)) (= var2 (newAddrRange (batchAlloc emptyHeap (O_Int var4) 100000)))))) (inv_main6 var5 var3 var2 var1 var0))))
(assert (forall ((var0 Int) (var1 Int) (var2 AddrRange) (var3 Int) (var4 Heap)) (or (not (and (inv_main17 var4 var3 var2 var1 var0) (and (is-O_Int (read var4 (nthAddrRange var2 var1))) (is-O_Int (read var4 (nthAddrRange var2 var0)))))) (inv_main16 var4 var3 var2 var1 (+ var0 1)))))
(assert (forall ((var0 Int) (var1 Int) (var2 AddrRange) (var3 Int) (var4 Heap)) (or (not (and (inv_main16 var4 var3 var2 var1 var0) (and (<= 0 (+ (+ var3 (* (- 1) (+ var1 1))) (- 1))) (not (<= 0 (+ (+ var3 (* (- 1) var0)) (- 1))))))) (inv_main16 var4 var3 var2 (+ var1 1) (+ (+ var1 1) 1)))))
(assert (forall ((var0 Int) (var1 AddrRange) (var2 Int) (var3 Heap) (var4 Int) (var5 Int) (var6 Int) (var7 Int) (var8 AddrRange) (var9 Int) (var10 Heap)) (or (not (and (inv_main11 var10 var9 var8 var7 var6) (and (<= 0 (+ var5 (- 1))) (and (not (<= 0 (+ (+ 100000 (* (- 1) (+ var4 1))) (- 1)))) (and (and (is-O_Int (read var10 (nthAddrRange var8 var7))) (is-O_Int (read var10 (nthAddrRange var8 var7)))) (and (and (and (and (= var3 (write var10 (nthAddrRange var8 var7) (O_Int var2))) (= var5 var9)) (= var1 var8)) (= var4 var7)) (= var0 var6))))))) (inv_main16 var3 var5 var1 0 1))))
(assert (forall ((var0 Int) (var1 Int) (var2 AddrRange) (var3 Int) (var4 Heap)) (or (not (and (inv_main16 var4 var3 var2 var1 var0) (<= 0 (+ (+ var3 (* (- 1) var0)) (- 1))))) (inv_main17 var4 var3 var2 var1 var0))))
(assert (forall ((var0 AddrRange) (var1 Int) (var2 Int) (var3 AddrRange) (var4 Int) (var5 Int) (var6 Heap) (var7 Int) (var8 Int) (var9 AddrRange) (var10 Int) (var11 Int) (var12 AddrRange) (var13 Int) (var14 Heap)) (or (not (and (inv_main25 var14 var13 var12 var11 var10 var9 var8) (and (<= 0 (+ (+ 100000 (* (- 1) (+ var7 1))) (- 1))) (and (and (is-O_Int (read var14 (nthAddrRange var9 var8))) (is-O_Int (read var14 (nthAddrRange var9 var8)))) (and (and (and (and (and (and (= var6 (write var14 (nthAddrRange var9 var8) (O_Int var5))) (= var4 var13)) (= var3 var12)) (= var2 var11)) (= var1 var10)) (= var0 var9)) (= var7 var8)))))) (inv_main25 var6 var4 var3 var2 var1 var0 (+ var7 1)))))
(assert (forall ((var0 AddrRange) (var1 Int) (var2 Int) (var3 AddrRange) (var4 Int) (var5 Int) (var6 Heap) (var7 Int) (var8 Int) (var9 AddrRange) (var10 Int) (var11 Heap)) (or (not (and (inv_main16 var11 var10 var9 var8 var7) (and (and (and (and (and (and (and (= var6 (newBatchHeap (batchAlloc emptyHeap (O_Int var5) 100000))) (= var4 var10)) (= var3 var9)) (= var2 (+ var8 1))) (= var1 var7)) (= var0 (newAddrRange (batchAlloc emptyHeap (O_Int var5) 100000)))) (not (<= 0 (+ (+ var10 (* (- 1) (+ var8 1))) (- 1))))) (not (<= 0 (+ (+ var10 (* (- 1) var7)) (- 1))))))) (inv_main25 var6 var4 var3 var2 var1 var0 0))))
(assert (forall ((var0 Int) (var1 Heap) (var2 Int) (var3 AddrRange) (var4 Int) (var5 Int) (var6 Int) (var7 AddrRange) (var8 AddrRange) (var9 Int) (var10 Int) (var11 Int) (var12 Heap) (var13 Int) (var14 Int) (var15 AddrRange) (var16 Int) (var17 Heap)) (or (not (and (inv_main11 var17 var16 var15 var14 var13) (and (and (and (and (and (and (and (= var12 (newBatchHeap (batchAlloc emptyHeap (O_Int var11) 100000))) (= var10 var9)) (= var8 var7)) (= var6 0)) (= var5 var4)) (= var3 (newAddrRange (batchAlloc emptyHeap (O_Int var11) 100000)))) (not (<= 0 (+ var9 (- 1))))) (and (not (<= 0 (+ (+ 100000 (* (- 1) (+ var2 1))) (- 1)))) (and (and (is-O_Int (read var17 (nthAddrRange var15 var14))) (is-O_Int (read var17 (nthAddrRange var15 var14)))) (and (and (and (and (= var1 (write var17 (nthAddrRange var15 var14) (O_Int var0))) (= var9 var16)) (= var7 var15)) (= var2 var14)) (= var4 var13))))))) (inv_main25 var12 var10 var8 var6 var5 var3 0))))
(assert (forall ((var0 AddrRange) (var1 Int) (var2 Int) (var3 AddrRange) (var4 Int) (var5 Int) (var6 Heap) (var7 Int) (var8 Int) (var9 AddrRange) (var10 Int) (var11 Int) (var12 AddrRange) (var13 Int) (var14 Heap)) (or (not (and (inv_main25 var14 var13 var12 var11 var10 var9 var8) (and (not (<= 0 (+ (+ 100000 (* (- 1) (+ var7 1))) (- 1)))) (and (and (is-O_Int (read var14 (nthAddrRange var9 var8))) (is-O_Int (read var14 (nthAddrRange var9 var8)))) (and (and (and (and (and (and (= var6 (write var14 (nthAddrRange var9 var8) (O_Int var5))) (= var4 var13)) (= var3 var12)) (= var2 var11)) (= var1 var10)) (= var0 var9)) (= var7 var8)))))) (inv_main28 var6 var4 var3 var2 var1 var0 0))))
(assert (forall ((var0 Int) (var1 Int) (var2 AddrRange) (var3 AddrRange) (var4 Int) (var5 Int) (var6 AddrRange) (var7 Int) (var8 Heap) (var9 Int) (var10 Int) (var11 Int) (var12 AddrRange) (var13 Int) (var14 AddrRange) (var15 Int) (var16 Int) (var17 AddrRange) (var18 Int) (var19 Heap)) (or (not (and (inv_main43 var19 var18 var17 var16 var15 var14 var13 var12 var11 var10) (and (<= 0 (+ (+ 100000 (* (- 1) (+ var9 1))) (- 1))) (and (and (is-O_Int (read var19 (nthAddrRange var12 var11))) (is-O_Int (read var19 (nthAddrRange var12 var11)))) (and (and (and (and (and (and (and (and (and (= var8 (write var19 (nthAddrRange var12 var11) (O_Int var10))) (= var7 var18)) (= var6 var17)) (= var5 var16)) (= var4 var15)) (= var3 var14)) (= var9 var13)) (= var2 var12)) (= var1 var11)) (= var0 var10)))))) (inv_main28 var8 (+ var1 1) var6 var5 var4 var3 (+ var9 1)))))
(assert (forall ((var0 Int) (var1 Int) (var2 AddrRange) (var3 Int) (var4 Int) (var5 AddrRange) (var6 Int) (var7 Heap)) (or (not (and (inv_main33 var7 var6 var5 var4 var3 var2 var1 var0) (and (<= 0 (+ (+ 100000 (* (- 1) (+ var1 1))) (- 1))) (not (= var0 0))))) (inv_main28 var7 var6 var5 var4 var3 var2 (+ var1 1)))))
(assert (forall ((var0 Int) (var1 Int) (var2 AddrRange) (var3 Int) (var4 Int) (var5 AddrRange) (var6 Int) (var7 Heap)) (or (not (and (inv_main33 var7 var6 var5 var4 var3 var2 var1 var0) (= var0 0))) (inv_main30 var7 var6 var5 var4 var3 var2 var1))))
(assert (forall ((var0 AddrRange) (var1 Int) (var2 AddrRange) (var3 Int) (var4 Int) (var5 AddrRange) (var6 Int) (var7 Heap) (var8 Int) (var9 Int) (var10 Int) (var11 Int) (var12 Int) (var13 Int) (var14 Int) (var15 AddrRange) (var16 Int) (var17 AddrRange) (var18 Int) (var19 Int) (var20 AddrRange) (var21 Int) (var22 Heap)) (or (not (and (inv_main38 var22 var21 var20 var19 var18 var17 var16 var15 var14 var13 var12) (and (<= 0 (+ (+ var11 (* (- 1) (+ var10 1))) (- 1))) (and (and (not (= var9 var8)) (is-O_Int (read var22 (nthAddrRange var15 var12)))) (and (and (and (and (and (and (and (and (and (and (and (= var7 var22) (= var6 var21)) (= var5 var20)) (= var4 var19)) (= var3 var18)) (= var2 var17)) (= var1 var16)) (= var0 var15)) (= var11 var14)) (= var8 var13)) (= var10 var12)) (= var9 (getInt (read var22 (nthAddrRange var15 var12))))))))) (inv_main38 var7 var6 var5 var4 var3 var2 var1 var0 var11 var8 (+ var10 1)))))
(assert (forall ((var0 Int) (var1 AddrRange) (var2 Int) (var3 AddrRange) (var4 Int) (var5 Int) (var6 AddrRange) (var7 Int) (var8 Heap) (var9 Int) (var10 Int) (var11 AddrRange) (var12 Int) (var13 Int) (var14 AddrRange) (var15 Int) (var16 Heap)) (or (not (and (inv_main28 var16 var15 var14 var13 var12 var11 var10) (and (and (<= 0 (+ var9 (- 1))) (is-O_Int (read var16 (nthAddrRange var11 var10)))) (and (and (and (and (and (and (and (and (and (= var8 var16) (= var7 var15)) (= var6 var14)) (= var5 var13)) (= var4 var12)) (= var3 var11)) (= var2 var10)) (= var1 var14)) (= var9 var15)) (= var0 (getInt (read var16 (nthAddrRange var11 var10)))))))) (inv_main38 var8 var7 var6 var5 var4 var3 var2 var1 var9 var0 0))))
(assert (forall ((var0 Int) (var1 Int) (var2 AddrRange) (var3 Int) (var4 AddrRange) (var5 Int) (var6 Int) (var7 AddrRange) (var8 Int) (var9 Heap) (var10 Int) (var11 Int) (var12 Int) (var13 Int) (var14 Int) (var15 AddrRange) (var16 Int) (var17 AddrRange) (var18 Int) (var19 Int) (var20 AddrRange) (var21 Int) (var22 Heap)) (or (not (and (inv_main38 var22 var21 var20 var19 var18 var17 var16 var15 var14 var13 var12) (and (and (= var11 var10) (is-O_Int (read var22 (nthAddrRange var15 var12)))) (and (and (and (and (and (and (and (and (and (and (and (= var9 var22) (= var8 var21)) (= var7 var20)) (= var6 var19)) (= var5 var18)) (= var4 var17)) (= var3 var16)) (= var2 var15)) (= var1 var14)) (= var10 var13)) (= var0 var12)) (= var11 (getInt (read var22 (nthAddrRange var15 var12)))))))) (inv_main33 var9 var8 var7 var6 var5 var4 var3 0))))
(assert (forall ((var0 AddrRange) (var1 Int) (var2 AddrRange) (var3 Int) (var4 Int) (var5 AddrRange) (var6 Int) (var7 Heap) (var8 Int) (var9 Int) (var10 Int) (var11 Int) (var12 Int) (var13 Int) (var14 Int) (var15 AddrRange) (var16 Int) (var17 AddrRange) (var18 Int) (var19 Int) (var20 AddrRange) (var21 Int) (var22 Heap)) (or (not (and (inv_main38 var22 var21 var20 var19 var18 var17 var16 var15 var14 var13 var12) (and (not (<= 0 (+ (+ var11 (* (- 1) (+ var10 1))) (- 1)))) (and (and (not (= var9 var8)) (is-O_Int (read var22 (nthAddrRange var15 var12)))) (and (and (and (and (and (and (and (and (and (and (and (= var7 var22) (= var6 var21)) (= var5 var20)) (= var4 var19)) (= var3 var18)) (= var2 var17)) (= var1 var16)) (= var0 var15)) (= var11 var14)) (= var8 var13)) (= var10 var12)) (= var9 (getInt (read var22 (nthAddrRange var15 var12))))))))) (inv_main33 var7 var6 var5 var4 var3 var2 var1 0))))
(assert (forall ((var0 Int) (var1 AddrRange) (var2 Int) (var3 AddrRange) (var4 Int) (var5 Int) (var6 AddrRange) (var7 Int) (var8 Heap) (var9 Int) (var10 Int) (var11 AddrRange) (var12 Int) (var13 Int) (var14 AddrRange) (var15 Int) (var16 Heap)) (or (not (and (inv_main28 var16 var15 var14 var13 var12 var11 var10) (and (and (not (<= 0 (+ var9 (- 1)))) (is-O_Int (read var16 (nthAddrRange var11 var10)))) (and (and (and (and (and (and (and (and (and (= var8 var16) (= var7 var15)) (= var6 var14)) (= var5 var13)) (= var4 var12)) (= var3 var11)) (= var2 var10)) (= var1 var14)) (= var9 var15)) (= var0 (getInt (read var16 (nthAddrRange var11 var10)))))))) (inv_main33 var8 var7 var6 var5 var4 var3 var2 0))))
(assert (forall ((var0 Int) (var1 Int) (var2 AddrRange) (var3 AddrRange) (var4 Int) (var5 Int) (var6 AddrRange) (var7 Int) (var8 Heap) (var9 Int) (var10 Int) (var11 Int) (var12 AddrRange) (var13 Int) (var14 AddrRange) (var15 Int) (var16 Int) (var17 AddrRange) (var18 Int) (var19 Heap)) (or (not (and (inv_main43 var19 var18 var17 var16 var15 var14 var13 var12 var11 var10) (and (not (<= 0 (+ (+ 100000 (* (- 1) (+ var9 1))) (- 1)))) (and (and (is-O_Int (read var19 (nthAddrRange var12 var11))) (is-O_Int (read var19 (nthAddrRange var12 var11)))) (and (and (and (and (and (and (and (and (and (= var8 (write var19 (nthAddrRange var12 var11) (O_Int var10))) (= var7 var18)) (= var6 var17)) (= var5 var16)) (= var4 var15)) (= var3 var14)) (= var9 var13)) (= var2 var12)) (= var1 var11)) (= var0 var10)))))) (inv_main48 var8 (+ var1 1) var6 0 var4 var3 (+ var9 1)))))
(assert (forall ((var0 Int) (var1 Int) (var2 AddrRange) (var3 Int) (var4 Int) (var5 AddrRange) (var6 Int) (var7 Heap)) (or (not (and (inv_main33 var7 var6 var5 var4 var3 var2 var1 var0) (and (not (<= 0 (+ (+ 100000 (* (- 1) (+ var1 1))) (- 1)))) (not (= var0 0))))) (inv_main48 var7 var6 var5 0 var3 var2 (+ var1 1)))))
(assert (forall ((var0 Int) (var1 AddrRange) (var2 Int) (var3 Int) (var4 AddrRange) (var5 Int) (var6 Heap)) (or (not (and (inv_main48 var6 var5 var4 var3 var2 var1 var0) (and (not (<= 0 (+ (+ var5 (* (- 1) (+ var3 1))) (- 1)))) (<= 0 (+ (+ var5 (* (- 1) var3)) (- 1)))))) (inv_main48 var6 var5 var4 (+ var3 1) (+ var3 1) var1 var0))))
(assert (forall ((var0 Int) (var1 AddrRange) (var2 Int) (var3 Int) (var4 AddrRange) (var5 Int) (var6 Heap)) (or (not (and (inv_main52 var6 var5 var4 var3 var2 var1 var0) (and (not (<= 0 (+ (+ var5 (* (- 1) (+ var2 1))) (- 1)))) (and (is-O_Int (read var6 (nthAddrRange var4 var3))) (is-O_Int (read var6 (nthAddrRange var4 var2))))))) (inv_main48 var6 var5 var4 (+ var3 1) (+ var2 1) var1 var0))))
(assert (forall ((var0 Int) (var1 AddrRange) (var2 Int) (var3 Int) (var4 AddrRange) (var5 Int) (var6 Heap)) (or (not (and (inv_main48 var6 var5 var4 var3 var2 var1 var0) (and (<= 0 (+ (+ var5 (* (- 1) (+ var3 1))) (- 1))) (<= 0 (+ (+ var5 (* (- 1) var3)) (- 1)))))) (inv_main52 var6 var5 var4 var3 (+ var3 1) var1 var0))))
(assert (forall ((var0 Int) (var1 AddrRange) (var2 Int) (var3 Int) (var4 AddrRange) (var5 Int) (var6 Heap)) (or (not (and (inv_main52 var6 var5 var4 var3 var2 var1 var0) (and (<= 0 (+ (+ var5 (* (- 1) (+ var2 1))) (- 1))) (and (is-O_Int (read var6 (nthAddrRange var4 var3))) (is-O_Int (read var6 (nthAddrRange var4 var2))))))) (inv_main52 var6 var5 var4 var3 (+ var2 1) var1 var0))))
(assert (forall ((var0 Int) (var1 AddrRange) (var2 Int) (var3 Int) (var4 AddrRange) (var5 Int) (var6 Heap)) (or (not (and (inv_main30 var6 var5 var4 var3 var2 var1 var0) (is-O_Int (read var6 (nthAddrRange var1 var0))))) (inv_main43 var6 var5 var4 var3 var2 var1 var0 var4 var5 (getInt (read var6 (nthAddrRange var1 var0)))))))
(assert (forall ((var0 Int) (var1 Int) (var2 AddrRange) (var3 Int) (var4 Heap)) (or (not (inv_main6 var4 var3 var2 var1 var0)) (inv_main11 var4 var3 var2 0 var0))))
(assert (forall ((var0 Int) (var1 AddrRange) (var2 Int) (var3 Int) (var4 Heap) (var5 Int) (var6 Int) (var7 Int) (var8 AddrRange) (var9 Int) (var10 Heap)) (or (not (and (inv_main11 var10 var9 var8 var7 var6) (and (<= 0 (+ (+ 100000 (* (- 1) (+ var5 1))) (- 1))) (and (and (is-O_Int (read var10 (nthAddrRange var8 var7))) (is-O_Int (read var10 (nthAddrRange var8 var7)))) (and (and (and (and (= var4 (write var10 (nthAddrRange var8 var7) (O_Int var3))) (= var2 var9)) (= var1 var8)) (= var5 var7)) (= var0 var6)))))) (inv_main11 var4 var2 var1 (+ var5 1) var0))))
(assert (forall ((var0 Int) (var1 Int) (var2 AddrRange) (var3 Int) (var4 Heap)) (not (and (inv_main11 var4 var3 var2 var1 var0) (not (is-O_Int (read var4 (nthAddrRange var2 var1))))))))
(assert (forall ((var0 Int) (var1 Int) (var2 AddrRange) (var3 Int) (var4 Heap)) (not (and (inv_main11 var4 var3 var2 var1 var0) (and (is-O_Int (read var4 (nthAddrRange var2 var1))) (not (within var2 (nthAddrRange var2 var1))))))))
(assert (forall ((var0 Int) (var1 Int) (var2 AddrRange) (var3 Int) (var4 Heap)) (not (and (inv_main11 var4 var3 var2 var1 var0) (and (is-O_Int (read var4 (nthAddrRange var2 var1))) (not (is-O_Int (read var4 (nthAddrRange var2 var1)))))))))
(assert (forall ((var0 Int) (var1 Int) (var2 AddrRange) (var3 Int) (var4 Heap)) (not (and (inv_main17 var4 var3 var2 var1 var0) (not (is-O_Int (read var4 (nthAddrRange var2 var1))))))))
(assert (forall ((var0 Int) (var1 Int) (var2 AddrRange) (var3 Int) (var4 Heap)) (not (and (inv_main17 var4 var3 var2 var1 var0) (not (within var2 (nthAddrRange var2 var1)))))))
(assert (forall ((var0 Int) (var1 Int) (var2 AddrRange) (var3 Int) (var4 Heap)) (not (and (inv_main17 var4 var3 var2 var1 var0) (not (is-O_Int (read var4 (nthAddrRange var2 var0))))))))
(assert (forall ((var0 Int) (var1 Int) (var2 AddrRange) (var3 Int) (var4 Heap)) (not (and (inv_main17 var4 var3 var2 var1 var0) (not (within var2 (nthAddrRange var2 var0)))))))
(assert (forall ((var0 Int) (var1 Int) (var2 AddrRange) (var3 Int) (var4 Heap)) (not (and (inv_main17 var4 var3 var2 var1 var0) (not (is-O_Int (read var4 (nthAddrRange var2 var1))))))))
(assert (forall ((var0 Int) (var1 Int) (var2 AddrRange) (var3 Int) (var4 Heap)) (not (and (inv_main17 var4 var3 var2 var1 var0) (and (is-O_Int (read var4 (nthAddrRange var2 var1))) (not (within var2 (nthAddrRange var2 var1))))))))
(assert (forall ((var0 Int) (var1 Int) (var2 AddrRange) (var3 Int) (var4 Heap)) (not (and (inv_main17 var4 var3 var2 var1 var0) (and (is-O_Int (read var4 (nthAddrRange var2 var1))) (not (is-O_Int (read var4 (nthAddrRange var2 var0)))))))))
(assert (forall ((var0 Int) (var1 Int) (var2 AddrRange) (var3 Int) (var4 Heap)) (not (and (inv_main17 var4 var3 var2 var1 var0) (and (and (is-O_Int (read var4 (nthAddrRange var2 var1))) (is-O_Int (read var4 (nthAddrRange var2 var0)))) (not (within var2 (nthAddrRange var2 var0))))))))
(assert (forall ((var0 Int) (var1 Int) (var2 AddrRange) (var3 Int) (var4 Heap)) (not (and (inv_main17 var4 var3 var2 var1 var0) (and (and (is-O_Int (read var4 (nthAddrRange var2 var1))) (is-O_Int (read var4 (nthAddrRange var2 var0)))) (= (getInt (read var4 (nthAddrRange var2 var1))) (getInt (read var4 (nthAddrRange var2 var0)))))))))
(assert (forall ((var0 Int) (var1 AddrRange) (var2 Int) (var3 Int) (var4 AddrRange) (var5 Int) (var6 Heap)) (not (and (inv_main25 var6 var5 var4 var3 var2 var1 var0) (not (is-O_Int (read var6 (nthAddrRange var1 var0))))))))
(assert (forall ((var0 Int) (var1 AddrRange) (var2 Int) (var3 Int) (var4 AddrRange) (var5 Int) (var6 Heap)) (not (and (inv_main25 var6 var5 var4 var3 var2 var1 var0) (and (is-O_Int (read var6 (nthAddrRange var1 var0))) (not (within var1 (nthAddrRange var1 var0))))))))
(assert (forall ((var0 Int) (var1 AddrRange) (var2 Int) (var3 Int) (var4 AddrRange) (var5 Int) (var6 Heap)) (not (and (inv_main25 var6 var5 var4 var3 var2 var1 var0) (and (is-O_Int (read var6 (nthAddrRange var1 var0))) (not (is-O_Int (read var6 (nthAddrRange var1 var0)))))))))
(assert (forall ((var0 Int) (var1 AddrRange) (var2 Int) (var3 Int) (var4 AddrRange) (var5 Int) (var6 Heap)) (not (and (inv_main28 var6 var5 var4 var3 var2 var1 var0) (not (is-O_Int (read var6 (nthAddrRange var1 var0))))))))
(assert (forall ((var0 Int) (var1 AddrRange) (var2 Int) (var3 Int) (var4 AddrRange) (var5 Int) (var6 Heap)) (not (and (inv_main28 var6 var5 var4 var3 var2 var1 var0) (and (is-O_Int (read var6 (nthAddrRange var1 var0))) (not (within var1 (nthAddrRange var1 var0))))))))
(assert (forall ((var0 Int) (var1 Int) (var2 Int) (var3 AddrRange) (var4 Int) (var5 AddrRange) (var6 Int) (var7 Int) (var8 AddrRange) (var9 Int) (var10 Heap)) (not (and (inv_main38 var10 var9 var8 var7 var6 var5 var4 var3 var2 var1 var0) (not (is-O_Int (read var10 (nthAddrRange var3 var0))))))))
(assert (forall ((var0 Int) (var1 Int) (var2 Int) (var3 AddrRange) (var4 Int) (var5 AddrRange) (var6 Int) (var7 Int) (var8 AddrRange) (var9 Int) (var10 Heap)) (not (and (inv_main38 var10 var9 var8 var7 var6 var5 var4 var3 var2 var1 var0) (and (is-O_Int (read var10 (nthAddrRange var3 var0))) (not (within var3 (nthAddrRange var3 var0))))))))
(assert (forall ((var0 Int) (var1 AddrRange) (var2 Int) (var3 Int) (var4 AddrRange) (var5 Int) (var6 Heap)) (not (and (inv_main30 var6 var5 var4 var3 var2 var1 var0) (not (is-O_Int (read var6 (nthAddrRange var1 var0))))))))
(assert (forall ((var0 Int) (var1 AddrRange) (var2 Int) (var3 Int) (var4 AddrRange) (var5 Int) (var6 Heap)) (not (and (inv_main30 var6 var5 var4 var3 var2 var1 var0) (and (is-O_Int (read var6 (nthAddrRange var1 var0))) (not (within var1 (nthAddrRange var1 var0))))))))
(assert (forall ((var0 Int) (var1 Int) (var2 AddrRange) (var3 Int) (var4 AddrRange) (var5 Int) (var6 Int) (var7 AddrRange) (var8 Int) (var9 Heap)) (not (and (inv_main43 var9 var8 var7 var6 var5 var4 var3 var2 var1 var0) (not (is-O_Int (read var9 (nthAddrRange var2 var1))))))))
(assert (forall ((var0 Int) (var1 Int) (var2 AddrRange) (var3 Int) (var4 AddrRange) (var5 Int) (var6 Int) (var7 AddrRange) (var8 Int) (var9 Heap)) (not (and (inv_main43 var9 var8 var7 var6 var5 var4 var3 var2 var1 var0) (and (is-O_Int (read var9 (nthAddrRange var2 var1))) (not (within var2 (nthAddrRange var2 var1))))))))
(assert (forall ((var0 Int) (var1 Int) (var2 AddrRange) (var3 Int) (var4 AddrRange) (var5 Int) (var6 Int) (var7 AddrRange) (var8 Int) (var9 Heap)) (not (and (inv_main43 var9 var8 var7 var6 var5 var4 var3 var2 var1 var0) (and (is-O_Int (read var9 (nthAddrRange var2 var1))) (not (is-O_Int (read var9 (nthAddrRange var2 var1)))))))))
(assert (forall ((var0 Int) (var1 AddrRange) (var2 Int) (var3 Int) (var4 AddrRange) (var5 Int) (var6 Heap)) (not (and (inv_main52 var6 var5 var4 var3 var2 var1 var0) (not (is-O_Int (read var6 (nthAddrRange var4 var3))))))))
(assert (forall ((var0 Int) (var1 AddrRange) (var2 Int) (var3 Int) (var4 AddrRange) (var5 Int) (var6 Heap)) (not (and (inv_main52 var6 var5 var4 var3 var2 var1 var0) (not (within var4 (nthAddrRange var4 var3)))))))
(assert (forall ((var0 Int) (var1 AddrRange) (var2 Int) (var3 Int) (var4 AddrRange) (var5 Int) (var6 Heap)) (not (and (inv_main52 var6 var5 var4 var3 var2 var1 var0) (not (is-O_Int (read var6 (nthAddrRange var4 var2))))))))
(assert (forall ((var0 Int) (var1 AddrRange) (var2 Int) (var3 Int) (var4 AddrRange) (var5 Int) (var6 Heap)) (not (and (inv_main52 var6 var5 var4 var3 var2 var1 var0) (not (within var4 (nthAddrRange var4 var2)))))))
(assert (forall ((var0 Int) (var1 AddrRange) (var2 Int) (var3 Int) (var4 AddrRange) (var5 Int) (var6 Heap)) (not (and (inv_main52 var6 var5 var4 var3 var2 var1 var0) (not (is-O_Int (read var6 (nthAddrRange var4 var3))))))))
(assert (forall ((var0 Int) (var1 AddrRange) (var2 Int) (var3 Int) (var4 AddrRange) (var5 Int) (var6 Heap)) (not (and (inv_main52 var6 var5 var4 var3 var2 var1 var0) (and (is-O_Int (read var6 (nthAddrRange var4 var3))) (not (within var4 (nthAddrRange var4 var3))))))))
(assert (forall ((var0 Int) (var1 AddrRange) (var2 Int) (var3 Int) (var4 AddrRange) (var5 Int) (var6 Heap)) (not (and (inv_main52 var6 var5 var4 var3 var2 var1 var0) (and (is-O_Int (read var6 (nthAddrRange var4 var3))) (not (is-O_Int (read var6 (nthAddrRange var4 var2)))))))))
(assert (forall ((var0 Int) (var1 AddrRange) (var2 Int) (var3 Int) (var4 AddrRange) (var5 Int) (var6 Heap)) (not (and (inv_main52 var6 var5 var4 var3 var2 var1 var0) (and (and (is-O_Int (read var6 (nthAddrRange var4 var3))) (is-O_Int (read var6 (nthAddrRange var4 var2)))) (not (within var4 (nthAddrRange var4 var2))))))))
(assert (forall ((var0 Int) (var1 AddrRange) (var2 Int) (var3 Int) (var4 AddrRange) (var5 Int) (var6 Heap)) (not (and (inv_main52 var6 var5 var4 var3 var2 var1 var0) (and (and (is-O_Int (read var6 (nthAddrRange var4 var3))) (is-O_Int (read var6 (nthAddrRange var4 var2)))) (= (getInt (read var6 (nthAddrRange var4 var3))) (getInt (read var6 (nthAddrRange var4 var2)))))))))
(check-sat)
